(set-info :smt-lib-version 2.6)
(set-logic QF_BV)
(set-info :source |
 Patrice Godefroid, SAGE (systematic dynamic test generation)
 For more information: http://research.microsoft.com/en-us/um/people/pg/public_psfiles/ndss2008.pdf
|)
(set-info :category "industrial")
(set-info :status unsat)
(declare-fun T4_302 () (_ BitVec 32))
(declare-fun T1_302 () (_ BitVec 8))
(declare-fun T1_303 () (_ BitVec 8))
(declare-fun T1_304 () (_ BitVec 8))
(declare-fun T1_305 () (_ BitVec 8))
(assert (and true (= T4_302 (bvor (bvshl (bvor (bvshl (bvor (bvshl ((_ zero_extend 24) T1_305) (_ bv8 32)) ((_ zero_extend 24) T1_304)) (_ bv8 32)) ((_ zero_extend 24) T1_303)) (_ bv8 32)) ((_ zero_extend 24) T1_302))) (bvult (_ bv4294967295 32) T4_302)))
(check-sat)
(exit)
